c Sudoku solution
p cnf 729 0
117 0
156 0
228 0
254 0
261 0
332 0
349 0
384 0
391 0
481 0
553 0
569 0
572 0
588 0
597 0
622 0
637 0
673 0
733 0
789 0
829 0
959 0
835 0
841 0
651 0
863 0
896 0
965 0
987 0
993 0
882 0
857 0
727 0
185 0
283 0
143 0
686 0
814 0
878 0
179 0
292 0
198 0
162 0
467 0
247 0
355 0
368 0
215 0
239 0
276 0
377 0
766 0
664 0
525 0
534 0
511 0
546 0
771 0
974 0
795 0
744 0
124 0
131 0
921 0
475 0
494 0
699 0
645 0
419 0
423 0
436 0
618 0
313 0
326 0
916 0
712 0
938 0
758 0
942 0
448 0
452 0
